
Gurobi 11.0.0 (linux64) logging started Tue Sep 17 02:42:11 2024

Set parameter LogFile to value "gurobi.log"
Set parameter InfUnbdInfo to value 1
Gurobi Optimizer version 11.0.0 build v11.0.0rc2 (linux64 - "Ubuntu 22.04.4 LTS")

CPU model: AMD EPYC 7V13 64-Core Processor, instruction set [SSE2|AVX|AVX2]
Thread count: 128 physical cores, 128 logical processors, using up to 32 threads

Optimize a model with 31 rows, 345 columns and 96 nonzeros
Model fingerprint: 0xd9cbfe77
Model has 341 quadratic constraints
Model has 2 general constraints
Variable types: 94 continuous, 251 integer (0 binary)
Coefficient statistics:
  Matrix range     [1e+00, 5e+04]
  QMatrix range    [1e+00, 5e+04]
  QLMatrix range   [1e+00, 5e+04]
  Objective range  [1e+00, 1e+00]
  Bounds range     [1e+00, 6e+11]
  RHS range        [1e+00, 7e+03]
  QRHS range       [1e+00, 2e+06]
Warning: Model contains large bounds
         Consider reformulating model or setting NumericFocus parameter
         to avoid numerical issues.
Using branch priorities (all 0).
Presolve added 89 rows and 41 columns
Presolve time: 0.01s
Presolved: 1255 rows, 553 columns, 3349 nonzeros
Presolved model has 26 SOS constraint(s)
Presolved model has 199 bilinear constraint(s)
Warning: Model contains variables with very large bounds participating
         in product terms.
         Presolve was not able to compute smaller bounds for these variables.
         Consider bounding these variables or reformulating the model.


Solving non-convex MIQCP

Variable types: 175 continuous, 378 integer (165 binary)

Root relaxation: objective 2.203404e+04, 255 iterations, 0.00 seconds (0.00 work units)

    Nodes    |    Current Node    |     Objective Bounds      |     Work
 Expl Unexpl |  Obj  Depth IntInf | Incumbent    BestBd   Gap | It/Node Time

     0     0 22034.0367    0  130          - 22034.0367      -     -    0s
     0     0 22034.0367    0  128          - 22034.0367      -     -    0s
H    0     0                    576904.99928 22034.0367  96.2%     -    0s
H    0     0                    537304.99928 22034.0367  95.9%     -    0s
     0     0 22454.8068    0  138 537304.999 22454.8068  95.8%     -    0s
H    0     0                    283993.99984 22454.8068  92.1%     -    0s
     0     0 22459.4230    0  153 283994.000 22459.4230  92.1%     -    0s
     0     0 22470.8569    0  148 283994.000 22470.8569  92.1%     -    0s
H    0     0                    282674.22912 22471.7965  92.1%     -    0s
     0     0 22473.5048    0  132 282674.229 22473.5048  92.0%     -    0s
H    0     0                    278855.00000 22473.5048  91.9%     -    0s
H    0     0                    248975.00000 22473.5048  91.0%     -    0s
     0     0 22491.0755    0  142 248975.000 22491.0755  91.0%     -    0s
H    0     0                    205896.29978 22493.1067  89.1%     -    0s
     0     0 22493.7024    0  136 205896.300 22493.7024  89.1%     -    0s
H    0     0                    178055.00000 22493.7024  87.4%     -    0s
     0     0 22512.5773    0  155 178055.000 22512.5773  87.4%     -    0s
     0     0 22521.5677    0  150 178055.000 22521.5677  87.4%     -    0s
     0     0 22530.6084    0  134 178055.000 22530.6084  87.3%     -    0s
H    0     0                    178054.99982 22531.5587  87.3%     -    0s
     0     0 22629.4137    0  136 178055.000 22629.4137  87.3%     -    0s
     0     0 22705.3370    0  158 178055.000 22705.3370  87.2%     -    0s
H    0     0                    154865.00000 22720.1567  85.3%     -    0s
     0     0 22720.1567    0  155 154865.000 22720.1567  85.3%     -    0s
     0     0 22881.1070    0  141 154865.000 22881.1070  85.2%     -    0s
     0     0 22881.7788    0  144 154865.000 22881.7788  85.2%     -    0s
     0     0 23808.3447    0  155 154865.000 23808.3447  84.6%     -    0s
H    0     0                    138750.00000 23808.3447  82.8%     -    0s
H    0     0                    96815.000000 23808.3447  75.4%     -    0s
     0     0 23950.0581    0  157 96815.0000 23950.0581  75.3%     -    0s
     0     0 25534.7363    0   81 96815.0000 25534.7363  73.6%     -    0s
H    0     0                    75215.000000 25534.7363  66.1%     -    0s
     0     0 26195.1492    0   84 75215.0000 26195.1492  65.2%     -    0s
     0     0 26238.9179    0   81 75215.0000 26238.9179  65.1%     -    0s
H    0     0                    72990.000000 26238.9179  64.1%     -    0s
     0     0 27415.8952    0   82 72990.0000 27415.8952  62.4%     -    0s
     0     0 27573.1971    0   84 72990.0000 27573.1971  62.2%     -    0s
H    0     0                    72745.000000 27573.1971  62.1%     -    0s
H    0     0                    72695.000000 27573.1971  62.1%     -    0s
     0     0 27918.7811    0   85 72695.0000 27918.7811  61.6%     -    0s
     0     0 27937.6381    0   85 72695.0000 27937.6381  61.6%     -    0s
     0     0 28406.6434    0   81 72695.0000 28406.6434  60.9%     -    0s
H    0     0                    61900.000000 28406.6434  54.1%     -    0s
     0     0 28406.6434    0   95 61900.0000 28406.6434  54.1%     -    0s
     0     0 28406.6434    0   58 61900.0000 28406.6434  54.1%     -    0s
     0     0 28406.6434    0  133 61900.0000 28406.6434  54.1%     -    0s
     0     0 28406.6434    0  137 61900.0000 28406.6434  54.1%     -    0s
     0     0 28406.6434    0  140 61900.0000 28406.6434  54.1%     -    0s
     0     0 35220.2873    0   89 61900.0000 35220.2873  43.1%     -    0s
     0     0 35227.5058    0  113 61900.0000 35227.5058  43.1%     -    0s
     0     0 35227.9199    0  110 61900.0000 35227.9199  43.1%     -    0s
     0     0 35227.9199    0   75 61900.0000 35227.9199  43.1%     -    0s
H    0     0                    51100.000000 35227.9199  31.1%     -    0s
     0     0 35228.4464    0   96 51100.0000 35228.4464  31.1%     -    0s
H    0     0                    50619.074945 35233.4213  30.4%     -    0s
     0     0 35233.4213    0   97 50619.0749 35233.4213  30.4%     -    0s
     0     0 35233.4213    0   95 50619.0749 35233.4213  30.4%     -    0s
     0     0 35237.0326    0   95 50619.0749 35237.0326  30.4%     -    0s
     0     0 35249.0177    0  109 50619.0749 35249.0177  30.4%     -    0s
     0     0 35261.0182    0  100 50619.0749 35261.0182  30.3%     -    0s
     0     0 35276.4817    0   96 50619.0749 35276.4817  30.3%     -    0s
     0     0 35281.4345    0  103 50619.0749 35281.4345  30.3%     -    0s
     0     0 35291.8727    0  102 50619.0749 35291.8727  30.3%     -    0s
     0     0 35303.1917    0  102 50619.0749 35303.1917  30.3%     -    0s
     0     0 35314.4523    0  102 50619.0749 35314.4523  30.2%     -    0s
     0     0 35316.1762    0  102 50619.0749 35316.1762  30.2%     -    0s
     0     0 35327.9985    0   96 50619.0749 35327.9985  30.2%     -    0s
     0     0 35331.9272    0  105 50619.0749 35331.9272  30.2%     -    1s
     0     0 35336.9870    0  102 50619.0749 35336.9870  30.2%     -    1s
     0     0 35342.2161    0  104 50619.0749 35342.2161  30.2%     -    1s
     0     0 35343.5814    0   75 50619.0749 35343.5814  30.2%     -    1s
     0     0 35344.7546    0  104 50619.0749 35344.7546  30.2%     -    1s
     0     0 35351.8327    0  105 50619.0749 35351.8327  30.2%     -    1s
     0     0 35356.5650    0  105 50619.0749 35356.5650  30.2%     -    1s
     0     0 35364.2025    0  104 50619.0749 35364.2025  30.1%     -    1s
     0     0 35377.1366    0  104 50619.0749 35377.1366  30.1%     -    1s
     0     0 35380.0668    0   93 50619.0749 35380.0668  30.1%     -    1s
     0     2 35380.0668    0   93 50619.0749 35380.0668  30.1%     -    1s
H   30    28                    49959.592445 35380.0668  29.2%  21.1    1s
*  728    69              23    49893.459231 35515.1654  28.8%   9.0    1s
H  757    64                    48914.729615 35580.2002  27.3%   8.8    1s

Cutting planes:
  Gomory: 5
  Implied bound: 23
  MIR: 46
  StrongCG: 1
  Flow cover: 1
  RLT: 27
  Relax-and-lift: 17

Explored 1483 nodes (12183 simplex iterations) in 2.19 seconds (0.37 work units)
Thread count was 32 (of 128 available processors)

Solution count 10: 48914.7 49893.5 49959.6 ... 72745

Optimal solution found (tolerance 1.00e-10)
Warning: max constraint violation (9.5474e-04) exceeds tolerance
Warning: max general constraint violation (9.5474e-04) exceeds tolerance
Best objective 4.891472961535e+04, best bound 4.891472961535e+04, gap 0.0000%
